[0, 23, 39, 29, 35, 33, 85, 82, 60, 75, 70, 53, 15, 41, 18, 7, 8, 40, 45, 96, 13, 34, 16, 99, 44, 51, 91, 63, 48, 62, 38, 89, 26, 25, 37, 47, 31, 24, 46, 87, 73, 90, 69, 71, 83, 74, 94, 68, 43, 65, 17, 77, 50, 12, 80, 92, 72, 78, 2, 49, 4, 3, 1, 66, 56, 21, 52, 28, 95, 9, 58, 14, 88, 19, 36, 22, 55, 20, 59, 97, 5, 10, 67, 32, 81, 6, 64, 79, 84, 54, 86, 42, 27, 30, 76, 61, 57, 93, 11, 98]
-1